c Output_time 26.03.2020 18:15:10_+0100 1585242910437857171
c ** Program information **
c program_name                          "QBRG_debug"
c version                               "0.3.20"
c date                                  "25.3.2020"
c gid_id                                "673970833836058123f633335630c185360d632e"
c author                                "Oliver Kullmann"
c url                                   "https://github.com/OKullmann/oklibrary/blob/master/Satisfiability/Transformers/Generators/Random/QBRG.cpp"
c ** Machine information **
c machine_name                          "chyna-Lenovo-G50-70"
c bogomips                              3791.08
c ** Compilation information **
c compiler_version                      "g++ 7.5.0"
c compilation_date                      "Mar_26_2020 11:16:30"
c compilation_options                   "--std=c++17 -pedantic -fmax-errors=5 -Wall -Wextra -g -D_GLIBCXX_DEBUG"
c NDEBUG                                0
c OPTIMIZE                              0
c ** Parameters **
c command-line                          "./QBRG_debug" "a40 e40 a40 40" "161*1,1|2-2,1|3-3,1|4-4,1" "" "1,t" ""
c output                                "QuBlRaGe_160_161_1585242910425599181.qdimacs"
c options                               "filtered,renamed"
c num_quantifier_blocks                 4
c  quantifier_blocks                    1:a1-40 2:e41-80 3:a81-120 4:e121-160
c num_clause-blocks                     1
c  clause-blocks                        161 * {1-40,1,1/2} | {41-80,1,1/2} | {81-120,1,1/2} | {121-160,1,1/2}
c num_e-seeds                           37+2=39
c  e-seeds                              1 0 1 0 5 160 2 40 0 40 1 40 0 40 1 161 4 1 1 1 1 2 2 2 1 1 2 3 3 1 1 2 4 4 1 1 2 1 1585242910425598648
p cnf 157 161
a 1 2 3 4 5 6 7 8 9 10 11 12 13 14 15 16 17 18 19 20 21 22 23 24 25 26 27 28 29 30 31 32 33 34 35 36 37 38 39 40 0
e 41 42 43 44 45 46 47 48 49 50 51 52 53 54 55 56 57 58 59 60 61 62 63 64 65 66 67 68 69 70 71 72 73 74 75 76 77 78 79 0
a 80 81 82 83 84 85 86 87 88 89 90 91 92 93 94 95 96 97 98 99 100 101 102 103 104 105 106 107 108 109 110 111 112 113 114 115 116 117 118 0
e 119 120 121 122 123 124 125 126 127 128 129 130 131 132 133 134 135 136 137 138 139 140 141 142 143 144 145 146 147 148 149 150 151 152 153 154 155 156 157 0
40 61 115 -119 0
-37 78 -104 119 0
-28 67 83 -120 0
12 44 110 -120 0
6 79 -114 -120 0
17 57 -89 120 0
-23 62 -92 120 0
-7 -73 94 120 0
-18 -56 115 120 0
-33 61 117 120 0
32 66 89 -121 0
24 65 -94 -121 0
37 -53 105 -121 0
21 -54 -110 -121 0
-38 -63 -86 121 0
16 -52 -105 121 0
-35 -43 80 -122 0
-7 47 113 -122 0
-16 -66 88 122 0
3 51 92 122 0
-8 -59 -117 122 0
38 61 -90 123 0
-38 -66 87 -124 0
23 67 -111 -124 0
-3 -77 -118 124 0
37 -78 -88 -125 0
-31 56 100 -125 0
32 67 106 -125 0
-9 69 108 -125 0
-23 54 94 125 0
-17 -46 107 125 0
-27 53 -88 126 0
-3 49 -90 126 0
35 -55 101 126 0
18 -63 -85 -127 0
-34 -60 -91 -127 0
-18 42 -92 -127 0
6 -49 109 -127 0
-7 72 -107 127 0
9 -71 111 127 0
25 71 -91 -128 0
12 -61 -107 -128 0
27 57 96 128 0
32 -52 94 -129 0
27 -69 -103 -129 0
28 -44 85 129 0
-40 -66 -102 129 0
40 70 -94 -130 0
-19 -58 99 -130 0
22 -49 -97 -131 0
25 50 82 131 0
12 75 89 131 0
33 42 -98 -132 0
33 -58 115 -132 0
-34 -63 115 -132 0
-1 63 -89 132 0
-31 -68 90 132 0
-23 61 98 132 0
6 -57 -116 -133 0
-34 -78 -84 -134 0
2 -70 -89 -134 0
34 73 -115 -134 0
-22 -59 104 134 0
-15 51 -98 -135 0
-2 48 108 -135 0
5 79 113 -135 0
14 -53 83 135 0
-19 78 -100 135 0
-28 68 -107 135 0
-26 -42 -109 135 0
38 -48 85 -136 0
27 66 -87 -136 0
-3 79 102 -136 0
3 61 82 136 0
-17 57 -91 136 0
32 48 99 136 0
-40 -63 116 -137 0
32 -63 87 137 0
-9 -45 -90 137 0
5 -42 102 137 0
-11 79 117 137 0
1 -66 82 -138 0
-21 -78 87 -138 0
6 -50 -113 -138 0
-4 -66 86 138 0
-6 -56 -80 -139 0
24 41 100 -139 0
5 -62 106 -139 0
16 -61 84 140 0
-2 46 -94 140 0
4 70 -81 -141 0
-8 -42 -83 -141 0
-16 66 -108 -141 0
-38 -55 90 141 0
12 -64 106 141 0
39 -69 -110 141 0
-30 -78 115 141 0
6 -43 -95 -142 0
26 49 -102 -142 0
-18 -69 118 -143 0
-18 66 -82 143 0
-26 69 91 143 0
26 -57 -92 143 0
1 -45 -96 143 0
-4 60 -106 143 0
17 -43 90 -144 0
4 62 99 -144 0
-19 -60 100 144 0
-31 46 105 144 0
26 -70 107 144 0
6 55 112 144 0
-40 47 -116 144 0
20 59 118 144 0
-24 53 93 -145 0
9 -41 102 -145 0
33 46 -80 145 0
-12 -78 -113 145 0
-20 43 -118 145 0
-13 70 -82 -146 0
-37 54 91 146 0
-33 44 -86 -147 0
10 46 80 -148 0
-26 54 113 -148 0
10 60 -82 148 0
-20 -46 101 148 0
39 -65 99 -149 0
39 -42 -110 -149 0
2 -63 -82 -150 0
-7 -66 83 -150 0
-36 -78 -104 -150 0
-38 75 107 -150 0
-5 -62 -109 -150 0
5 59 -116 150 0
20 44 80 -151 0
-38 74 107 -151 0
-25 -70 111 -151 0
35 -48 106 151 0
2 66 -90 -152 0
-33 -76 86 152 0
-12 -41 -87 152 0
29 51 98 152 0
7 -61 -94 -153 0
-9 -58 -105 -153 0
1 -69 -109 153 0
34 70 -93 -154 0
-38 72 -81 154 0
-26 45 -86 154 0
-5 -51 -87 154 0
-16 -58 -96 154 0
28 50 -103 154 0
27 72 -92 -155 0
12 64 106 -155 0
-16 -68 -100 155 0
12 59 107 155 0
28 66 -95 -156 0
-33 52 111 -156 0
-17 50 -86 156 0
-35 52 87 156 0
-29 -54 -81 -157 0
40 44 -91 157 0
-24 72 -108 157 0
